NAME : local_0
TYPE : ATSP
DIMENSION : 55
EDGE_WEIGHT_TYPE : EXPLICIT
EDGE_WEIGHT_FORMAT : FULL_MATRIX
EDGE_WEIGHT_SECTION
0 10000000 10000000 10000000 10000000 934 1052 10000000 10000000 765 10000000 10000000 10000000 10000000 818 10000000 781 434 10000000 10000000 10000000 775 10000000 10000000 10000000 10000000 10000000 10000000 10000000 10000000 10000000 10000000 10000000 10000000 10000000 10000000 10000000 576 10000000 10000000 938 10000000 10000000 940 10000000 10000000 10000000 10000000 10000000 10000000 10000000 10000000 10000000 10000000 10000000 
0 0 536 638 714 10000000 10000000 10000000 10000000 10000000 372 10000000 183 10000000 10000000 10000000 10000000 10000000 10000000 959 10000000 10000000 10000000 10000000 10000000 10000000 10000000 10000000 10000000 10000000 251 10000000 10000000 908 10000000 10000000 10000000 10000000 771 10000000 10000000 10000000 10000000 10000000 10000000 724 317 10000000 461 10000000 506 509 616 920 10000000 
0 536 0 454 860 10000000 10000000 10000000 10000000 10000000 766 10000000 695 10000000 10000000 10000000 10000000 10000000 10000000 10000000 10000000 10000000 10000000 10000000 10000000 10000000 10000000 10000000 10000000 10000000 287 10000000 10000000 910 10000000 10000000 10000000 10000000 360 10000000 10000000 10000000 10000000 10000000 10000000 10000000 835 10000000 987 10000000 732 416 10000000 10000000 10000000 
0 638 454 0 10000000 10000000 10000000 10000000 10000000 10000000 657 10000000 697 10000000 10000000 10000000 10000000 10000000 10000000 10000000 10000000 587 10000000 10000000 10000000 10000000 10000000 10000000 10000000 10000000 513 10000000 10000000 10000000 10000000 10000000 10000000 10000000 309 10000000 10000000 10000000 10000000 10000000 10000000 10000000 913 993 974 10000000 495 161 10000000 10000000 10000000 
0 714 860 10000000 0 10000000 10000000 10000000 976 10000000 10000000 10000000 823 10000000 10000000 10000000 10000000 10000000 10000000 690 10000000 10000000 10000000 10000000 10000000 10000000 10000000 10000000 10000000 858 726 10000000 10000000 273 10000000 10000000 10000000 10000000 10000000 10000000 10000000 10000000 10000000 10000000 10000000 997 674 10000000 981 10000000 10000000 10000000 737 10000000 10000000 
0 10000000 10000000 10000000 10000000 0 406 501 293 409 10000000 10000000 10000000 10000000 10000000 10000000 10000000 806 10000000 10000000 503 10000000 10000000 578 10000000 10000000 10000000 10000000 10000000 567 10000000 10000000 856 994 10000000 899 10000000 661 10000000 10000000 912 403 905 807 650 10000000 10000000 10000000 10000000 10000000 10000000 10000000 10000000 10000000 10000000 
0 10000000 10000000 10000000 10000000 406 0 244 310 408 10000000 10000000 10000000 10000000 10000000 10000000 10000000 10000000 10000000 10000000 838 10000000 10000000 873 10000000 10000000 10000000 10000000 10000000 846 10000000 10000000 10000000 10000000 10000000 10000000 10000000 943 10000000 10000000 10000000 746 10000000 10000000 10000000 10000000 10000000 10000000 10000000 10000000 10000000 10000000 10000000 10000000 10000000 
0 10000000 10000000 10000000 10000000 501 244 0 258 639 10000000 10000000 10000000 10000000 10000000 10000000 10000000 10000000 10000000 10000000 863 10000000 10000000 841 10000000 10000000 10000000 10000000 10000000 773 10000000 10000000 10000000 802 10000000 10000000 10000000 10000000 10000000 10000000 10000000 738 10000000 10000000 10000000 10000000 10000000 10000000 10000000 10000000 10000000 10000000 10000000 10000000 10000000 
0 10000000 10000000 10000000 976 293 310 258 0 563 10000000 10000000 10000000 10000000 10000000 10000000 10000000 10000000 10000000 10000000 609 10000000 10000000 597 10000000 10000000 10000000 10000000 10000000 544 10000000 10000000 998 811 10000000 992 10000000 953 10000000 10000000 10000000 483 10000000 10000000 792 10000000 10000000 10000000 10000000 10000000 10000000 10000000 10000000 10000000 10000000 
0 10000000 10000000 10000000 10000000 409 408 639 563 0 10000000 10000000 10000000 10000000 10000000 10000000 10000000 845 10000000 10000000 788 10000000 10000000 911 10000000 10000000 10000000 10000000 10000000 951 10000000 10000000 10000000 10000000 10000000 10000000 10000000 625 10000000 10000000 997 770 10000000 843 916 10000000 10000000 10000000 10000000 10000000 10000000 10000000 10000000 10000000 10000000 
0 372 766 657 10000000 10000000 10000000 10000000 10000000 10000000 0 972 245 10000000 10000000 10000000 10000000 10000000 10000000 10000000 10000000 10000000 10000000 10000000 10000000 10000000 10000000 10000000 10000000 10000000 537 10000000 10000000 10000000 10000000 10000000 10000000 10000000 856 811 10000000 10000000 10000000 10000000 10000000 690 485 891 362 10000000 239 546 725 623 10000000 
0 10000000 10000000 10000000 10000000 10000000 10000000 10000000 10000000 10000000 972 0 989 10000000 10000000 10000000 10000000 10000000 787 10000000 10000000 10000000 488 10000000 10000000 10000000 10000000 375 10000000 10000000 10000000 10000000 10000000 10000000 10000000 10000000 10000000 10000000 10000000 741 10000000 10000000 10000000 10000000 10000000 553 946 10000000 764 396 10000000 10000000 812 542 10000000 
0 183 695 697 823 10000000 10000000 10000000 10000000 10000000 245 989 0 10000000 10000000 10000000 10000000 10000000 10000000 985 10000000 10000000 10000000 10000000 10000000 10000000 10000000 10000000 10000000 10000000 420 10000000 10000000 10000000 10000000 10000000 10000000 10000000 879 956 10000000 10000000 10000000 10000000 10000000 584 259 10000000 304 10000000 433 567 536 745 10000000 
0 10000000 10000000 10000000 10000000 10000000 10000000 10000000 10000000 10000000 10000000 10000000 10000000 0 403 408 418 811 10000000 10000000 10000000 10000000 10000000 10000000 10000000 922 10000000 10000000 542 10000000 10000000 478 10000000 10000000 860 10000000 10000000 994 10000000 926 798 10000000 10000000 999 10000000 10000000 10000000 760 10000000 10000000 10000000 10000000 10000000 10000000 10000000 
0 10000000 10000000 10000000 10000000 10000000 10000000 10000000 10000000 10000000 10000000 10000000 10000000 403 0 785 178 519 10000000 10000000 10000000 861 10000000 10000000 10000000 970 10000000 10000000 737 10000000 10000000 683 10000000 10000000 965 10000000 10000000 811 10000000 774 748 10000000 10000000 935 10000000 10000000 10000000 543 10000000 10000000 10000000 10000000 10000000 978 10000000 
0 10000000 10000000 10000000 10000000 10000000 10000000 10000000 10000000 10000000 10000000 10000000 10000000 408 785 0 781 10000000 10000000 10000000 10000000 10000000 10000000 10000000 10000000 996 10000000 10000000 622 10000000 10000000 450 10000000 10000000 884 10000000 10000000 10000000 10000000 10000000 10000000 10000000 10000000 10000000 10000000 10000000 10000000 990 10000000 10000000 10000000 10000000 10000000 10000000 10000000 
0 10000000 10000000 10000000 10000000 10000000 10000000 10000000 10000000 10000000 10000000 10000000 10000000 418 178 781 0 416 10000000 10000000 10000000 967 10000000 10000000 10000000 801 10000000 10000000 602 10000000 10000000 771 10000000 10000000 806 10000000 10000000 664 10000000 856 570 10000000 10000000 759 10000000 10000000 10000000 673 10000000 10000000 10000000 10000000 10000000 10000000 10000000 
0 10000000 10000000 10000000 10000000 806 10000000 10000000 10000000 845 10000000 10000000 10000000 811 519 10000000 416 0 10000000 10000000 10000000 891 10000000 10000000 10000000 864 10000000 10000000 818 10000000 10000000 10000000 10000000 10000000 932 10000000 10000000 356 10000000 10000000 553 1083 10000000 628 10000000 10000000 10000000 944 10000000 10000000 10000000 10000000 10000000 10000000 10000000 
0 10000000 10000000 10000000 10000000 10000000 10000000 10000000 10000000 10000000 10000000 787 10000000 10000000 10000000 10000000 10000000 10000000 0 638 10000000 10000000 325 10000000 482 10000000 573 914 10000000 10000000 10000000 10000000 732 10000000 10000000 649 697 10000000 10000000 10000000 10000000 10000000 951 10000000 10000000 772 10000000 10000000 10000000 529 10000000 10000000 821 10000000 995 
0 959 10000000 10000000 690 10000000 10000000 10000000 10000000 10000000 10000000 10000000 988 10000000 10000000 10000000 10000000 10000000 638 0 10000000 10000000 716 883 10000000 10000000 897 10000000 10000000 737 10000000 10000000 847 876 10000000 693 10000000 10000000 10000000 10000000 10000000 926 10000000 10000000 10000000 663 703 10000000 908 959 10000000 10000000 483 10000000 10000000 
0 10000000 10000000 10000000 10000000 503 838 863 609 788 10000000 10000000 10000000 10000000 10000000 10000000 10000000 10000000 10000000 10000000 0 10000000 10000000 200 10000000 894 730 10000000 10000000 361 10000000 10000000 458 10000000 10000000 501 885 833 10000000 10000000 850 208 513 737 195 10000000 10000000 10000000 10000000 10000000 10000000 10000000 10000000 10000000 10000000 
0 10000000 10000000 587 10000000 10000000 10000000 10000000 10000000 10000000 10000000 10000000 10000000 10000000 861 10000000 967 891 10000000 10000000 10000000 0 10000000 10000000 10000000 10000000 10000000 10000000 10000000 10000000 10000000 10000000 10000000 10000000 10000000 10000000 10000000 10000000 731 10000000 10000000 10000000 10000000 10000000 10000000 10000000 10000000 868 10000000 10000000 846 694 10000000 10000000 10000000 
0 10000000 10000000 10000000 10000000 10000000 10000000 10000000 10000000 10000000 10000000 488 10000000 10000000 10000000 10000000 10000000 10000000 325 716 10000000 10000000 0 10000000 752 10000000 855 663 10000000 10000000 10000000 10000000 1021 10000000 10000000 917 939 10000000 10000000 10000000 10000000 10000000 10000000 10000000 10000000 548 938 10000000 905 255 10000000 10000000 689 898 10000000 
0 10000000 10000000 10000000 10000000 578 873 841 597 911 10000000 10000000 10000000 10000000 10000000 10000000 10000000 10000000 10000000 883 200 10000000 10000000 0 10000000 10000000 746 10000000 10000000 203 10000000 10000000 490 10000000 10000000 457 944 10000000 10000000 10000000 10000000 205 633 925 322 10000000 10000000 10000000 10000000 10000000 10000000 10000000 10000000 10000000 10000000 
0 10000000 10000000 10000000 10000000 10000000 10000000 10000000 10000000 10000000 10000000 10000000 10000000 10000000 10000000 10000000 10000000 10000000 482 10000000 10000000 10000000 752 10000000 0 963 401 10000000 10000000 10000000 10000000 10000000 679 10000000 985 671 406 10000000 10000000 10000000 10000000 10000000 769 10000000 953 10000000 10000000 10000000 10000000 865 10000000 10000000 10000000 10000000 618 
0 10000000 10000000 10000000 10000000 10000000 10000000 10000000 10000000 10000000 10000000 10000000 10000000 922 970 996 801 864 10000000 10000000 894 10000000 10000000 10000000 963 0 708 10000000 472 10000000 10000000 10000000 686 10000000 144 863 562 732 10000000 10000000 318 986 480 407 737 10000000 10000000 10000000 10000000 10000000 10000000 10000000 10000000 10000000 550 
0 10000000 10000000 10000000 10000000 10000000 10000000 10000000 10000000 10000000 10000000 10000000 10000000 10000000 10000000 10000000 10000000 10000000 573 897 730 10000000 855 746 401 708 0 10000000 10000000 813 10000000 10000000 282 10000000 782 328 253 10000000 10000000 10000000 879 795 403 914 558 10000000 10000000 10000000 10000000 10000000 10000000 10000000 10000000 10000000 598 
0 10000000 10000000 10000000 10000000 10000000 10000000 10000000 10000000 10000000 10000000 375 10000000 10000000 10000000 10000000 10000000 10000000 914 10000000 10000000 10000000 663 10000000 10000000 10000000 10000000 0 10000000 10000000 10000000 10000000 10000000 10000000 10000000 10000000 10000000 10000000 10000000 905 10000000 10000000 10000000 10000000 10000000 915 10000000 10000000 10000000 457 10000000 10000000 10000000 802 10000000 
0 10000000 10000000 10000000 10000000 10000000 10000000 10000000 10000000 10000000 10000000 10000000 10000000 542 737 622 602 818 10000000 10000000 10000000 10000000 10000000 10000000 10000000 472 10000000 10000000 0 10000000 10000000 936 10000000 10000000 395 10000000 977 790 10000000 10000000 457 10000000 945 615 10000000 10000000 10000000 10000000 10000000 10000000 10000000 10000000 10000000 10000000 881 
0 10000000 10000000 10000000 858 567 846 773 544 951 10000000 10000000 10000000 10000000 10000000 10000000 10000000 10000000 10000000 737 361 10000000 10000000 203 10000000 10000000 813 10000000 10000000 0 10000000 10000000 566 818 10000000 493 10000000 10000000 10000000 10000000 10000000 221 765 10000000 474 10000000 10000000 10000000 10000000 10000000 10000000 10000000 10000000 10000000 10000000 
0 251 287 513 726 10000000 10000000 10000000 10000000 10000000 537 10000000 420 10000000 10000000 10000000 10000000 10000000 10000000 10000000 10000000 10000000 10000000 10000000 10000000 10000000 10000000 10000000 10000000 10000000 0 10000000 10000000 857 10000000 10000000 10000000 10000000 566 10000000 10000000 10000000 10000000 10000000 10000000 971 552 10000000 707 10000000 579 406 842 10000000 10000000 
0 10000000 10000000 10000000 10000000 10000000 10000000 10000000 10000000 10000000 10000000 10000000 10000000 478 683 450 771 10000000 10000000 10000000 10000000 10000000 10000000 10000000 10000000 10000000 10000000 10000000 936 10000000 10000000 0 10000000 10000000 10000000 10000000 10000000 10000000 10000000 733 10000000 10000000 10000000 10000000 10000000 10000000 10000000 650 10000000 10000000 10000000 10000000 10000000 10000000 10000000 
0 10000000 10000000 10000000 10000000 856 10000000 10000000 998 10000000 10000000 10000000 10000000 10000000 10000000 10000000 10000000 10000000 732 847 458 10000000 1076 490 679 686 282 10000000 10000000 566 10000000 10000000 0 10000000 800 182 463 962 10000000 10000000 765 516 292 759 298 10000000 10000000 10000000 10000000 10000000 10000000 10000000 10000000 10000000 777 
0 908 910 10000000 273 994 10000000 802 811 10000000 10000000 10000000 10000000 10000000 10000000 10000000 10000000 10000000 10000000 876 10000000 10000000 10000000 10000000 10000000 10000000 10000000 10000000 10000000 818 857 10000000 10000000 0 10000000 10000000 10000000 10000000 10000000 10000000 10000000 953 10000000 10000000 10000000 10000000 921 10000000 10000000 10000000 10000000 10000000 994 10000000 10000000 
0 10000000 10000000 10000000 10000000 10000000 10000000 10000000 10000000 10000000 10000000 10000000 10000000 860 965 884 806 932 10000000 10000000 10000000 10000000 10000000 10000000 985 144 782 10000000 395 10000000 10000000 10000000 800 10000000 0 972 600 829 10000000 10000000 403 10000000 602 522 875 10000000 10000000 10000000 10000000 10000000 10000000 10000000 10000000 10000000 516 
0 10000000 10000000 10000000 10000000 899 10000000 10000000 992 10000000 10000000 10000000 10000000 10000000 10000000 10000000 10000000 10000000 649 693 501 10000000 917 457 671 863 328 10000000 10000000 493 10000000 10000000 182 10000000 972 0 565 10000000 10000000 10000000 983 518 465 929 393 10000000 10000000 10000000 10000000 10000000 10000000 10000000 10000000 10000000 903 
0 10000000 10000000 10000000 10000000 10000000 10000000 10000000 10000000 10000000 10000000 10000000 10000000 10000000 10000000 10000000 10000000 10000000 697 10000000 885 10000000 939 944 406 562 253 10000000 977 10000000 10000000 10000000 463 10000000 600 565 0 10000000 10000000 10000000 802 970 428 864 694 10000000 10000000 10000000 10000000 10000000 10000000 10000000 10000000 10000000 353 
0 10000000 10000000 10000000 10000000 661 943 10000000 953 625 10000000 10000000 10000000 994 811 10000000 664 356 10000000 10000000 833 10000000 10000000 10000000 10000000 732 10000000 10000000 790 10000000 10000000 10000000 962 10000000 829 10000000 10000000 0 10000000 10000000 435 842 857 369 830 10000000 10000000 10000000 10000000 10000000 10000000 10000000 10000000 10000000 10000000 
0 771 360 309 10000000 10000000 10000000 10000000 10000000 10000000 856 10000000 879 10000000 10000000 10000000 10000000 10000000 10000000 10000000 10000000 731 10000000 10000000 10000000 10000000 10000000 10000000 10000000 10000000 566 10000000 10000000 10000000 10000000 10000000 10000000 10000000 0 10000000 10000000 10000000 10000000 10000000 10000000 10000000 10000000 10000000 10000000 10000000 720 381 10000000 10000000 10000000 
0 10000000 10000000 10000000 10000000 10000000 10000000 10000000 10000000 10000000 811 741 956 926 774 10000000 856 10000000 10000000 10000000 10000000 10000000 10000000 10000000 10000000 10000000 10000000 905 10000000 10000000 10000000 733 10000000 10000000 10000000 10000000 10000000 10000000 10000000 0 10000000 10000000 10000000 10000000 10000000 961 10000000 320 909 10000000 766 10000000 10000000 286 10000000 
0 10000000 10000000 10000000 10000000 912 10000000 10000000 10000000 997 10000000 10000000 10000000 798 748 10000000 570 553 10000000 10000000 850 10000000 10000000 10000000 10000000 318 879 10000000 457 10000000 10000000 10000000 765 10000000 403 988 802 435 10000000 10000000 0 900 614 230 749 10000000 10000000 10000000 10000000 10000000 10000000 10000000 10000000 10000000 861 
0 10000000 10000000 10000000 10000000 403 746 738 483 770 10000000 10000000 10000000 10000000 10000000 10000000 10000000 1064 10000000 943 208 10000000 10000000 205 10000000 986 795 10000000 10000000 221 10000000 10000000 516 953 10000000 518 970 842 10000000 10000000 900 0 647 820 347 10000000 10000000 10000000 10000000 10000000 10000000 10000000 10000000 10000000 10000000 
0 10000000 10000000 10000000 10000000 905 10000000 10000000 10000000 10000000 10000000 10000000 10000000 10000000 10000000 10000000 10000000 10000000 951 10000000 513 10000000 10000000 633 769 480 403 10000000 945 765 10000000 10000000 292 10000000 602 465 428 857 10000000 10000000 614 647 0 569 322 10000000 10000000 10000000 10000000 10000000 10000000 10000000 10000000 10000000 627 
0 10000000 10000000 10000000 10000000 807 10000000 10000000 10000000 843 10000000 10000000 10000000 999 935 10000000 759 628 10000000 10000000 737 10000000 10000000 925 10000000 407 914 10000000 615 10000000 10000000 10000000 759 10000000 522 929 864 369 10000000 10000000 230 820 569 0 657 10000000 10000000 10000000 10000000 10000000 10000000 10000000 10000000 10000000 926 
0 10000000 10000000 10000000 10000000 650 10000000 10000000 792 916 10000000 10000000 10000000 10000000 10000000 10000000 10000000 10000000 10000000 10000000 195 10000000 10000000 322 953 737 558 10000000 10000000 474 10000000 10000000 298 10000000 875 393 694 830 10000000 10000000 749 347 322 657 0 10000000 10000000 10000000 10000000 10000000 10000000 10000000 10000000 10000000 943 
0 724 10000000 10000000 997 10000000 10000000 10000000 10000000 10000000 690 553 584 10000000 10000000 10000000 10000000 10000000 772 663 10000000 10000000 548 10000000 10000000 10000000 10000000 915 10000000 10000000 971 10000000 10000000 10000000 10000000 10000000 10000000 10000000 10000000 961 10000000 10000000 10000000 10000000 10000000 0 438 10000000 372 668 895 10000000 269 691 10000000 
0 317 835 913 674 10000000 10000000 10000000 10000000 10000000 485 946 259 10000000 10000000 10000000 10000000 10000000 10000000 703 10000000 10000000 938 10000000 10000000 10000000 10000000 10000000 10000000 10000000 552 10000000 10000000 921 10000000 10000000 10000000 10000000 10000000 10000000 10000000 10000000 10000000 10000000 10000000 438 0 10000000 308 10000000 688 782 301 849 10000000 
0 10000000 10000000 993 10000000 10000000 10000000 10000000 10000000 10000000 891 10000000 10000000 760 543 990 673 944 10000000 10000000 10000000 868 10000000 10000000 10000000 10000000 10000000 10000000 10000000 10000000 10000000 650 10000000 10000000 10000000 10000000 10000000 10000000 10000000 320 10000000 10000000 10000000 10000000 10000000 10000000 10000000 0 10000000 10000000 762 980 10000000 557 10000000 
0 461 987 974 981 10000000 10000000 10000000 10000000 10000000 362 764 304 10000000 10000000 10000000 10000000 10000000 10000000 908 10000000 10000000 905 10000000 10000000 10000000 10000000 10000000 10000000 10000000 707 10000000 10000000 10000000 10000000 10000000 10000000 10000000 10000000 909 10000000 10000000 10000000 10000000 10000000 372 308 10000000 0 998 595 849 438 642 10000000 
0 10000000 10000000 10000000 10000000 10000000 10000000 10000000 10000000 10000000 10000000 396 10000000 10000000 10000000 10000000 10000000 10000000 529 959 10000000 10000000 255 10000000 865 10000000 10000000 457 10000000 10000000 10000000 10000000 10000000 10000000 10000000 10000000 10000000 10000000 10000000 10000000 10000000 10000000 10000000 10000000 10000000 668 10000000 10000000 998 0 10000000 10000000 865 909 10000000 
0 506 732 495 10000000 10000000 10000000 10000000 10000000 10000000 239 10000000 433 10000000 10000000 10000000 10000000 10000000 10000000 10000000 10000000 846 10000000 10000000 10000000 10000000 10000000 10000000 10000000 10000000 579 10000000 10000000 10000000 10000000 10000000 10000000 10000000 720 766 10000000 10000000 10000000 10000000 10000000 895 688 762 595 10000000 0 416 932 660 10000000 
0 509 416 161 10000000 10000000 10000000 10000000 10000000 10000000 546 10000000 567 10000000 10000000 10000000 10000000 10000000 10000000 10000000 10000000 694 10000000 10000000 10000000 10000000 10000000 10000000 10000000 10000000 406 10000000 10000000 10000000 10000000 10000000 10000000 10000000 381 10000000 10000000 10000000 10000000 10000000 10000000 10000000 782 980 849 10000000 416 0 10000000 996 10000000 
0 616 10000000 10000000 737 10000000 10000000 10000000 10000000 10000000 725 812 536 10000000 10000000 10000000 10000000 10000000 821 483 10000000 10000000 689 10000000 10000000 10000000 10000000 10000000 10000000 10000000 842 10000000 10000000 994 10000000 10000000 10000000 10000000 10000000 10000000 10000000 10000000 10000000 10000000 10000000 269 301 10000000 438 865 932 10000000 0 892 10000000 
0 920 10000000 10000000 10000000 10000000 10000000 10000000 10000000 10000000 623 542 745 10000000 978 10000000 10000000 10000000 10000000 10000000 10000000 10000000 898 10000000 10000000 10000000 10000000 802 10000000 10000000 10000000 10000000 10000000 10000000 10000000 10000000 10000000 10000000 10000000 286 10000000 10000000 10000000 10000000 10000000 691 849 557 642 909 660 996 892 0 10000000 
0 10000000 10000000 10000000 10000000 10000000 10000000 10000000 10000000 10000000 10000000 10000000 10000000 10000000 10000000 10000000 10000000 10000000 10000000 10000000 10000000 10000000 10000000 10000000 10000000 10000000 10000000 10000000 10000000 10000000 10000000 10000000 10000000 10000000 10000000 10000000 10000000 10000000 10000000 10000000 10000000 10000000 10000000 10000000 10000000 10000000 10000000 10000000 10000000 10000000 10000000 10000000 10000000 10000000 0 
EOF